20
10
658929
0
0
40 39 56 43 66 55 46 50 59 41
1
0
37 35 54 42 68 56 46 47 57 39
2
0
42 38 52 42 67 53 46 48 63 38
3
0
40 37 51 38 64 56 44 48 58 41
4
0
40 36 56 39 64 56 47 50 59 38
5
0
40 36 56 43 65 55 46 50 59 37
6
0
40 42 52 40 68 54 47 47 56 41
7
0
42 39 55 41 67 58 48 50 59 43
8
0
42 39 55 42 66 57 51 49 60 38
9
0
37 36 53 42 65 55 49 49 57 40
10
0
42 36 54 38 70 55 49 52 54 39
11
0
39 31 55 40 64 55 47 47 58 43
12
0
38 38 51 40 68 58 49 48 57 40
13
0
38 37 55 40 67 54 49 48 57 39
14
0
39 33 54 40 66 55 45 48 56 40
15
0
40 38 53 42 69 56 53 50 57 39
16
0
37 36 54 38 68 55 47 45 58 35
17
0
43 40 57 43 67 54 49 50 60 42
18
0
40 39 54 42 64 53 49 46 59 42
19
0
40 38 53 43 64 56 51 45 52 40
